c This is a CNF SAT formula in the DIMACS CNF format,
c produced with the bc2cnf translator by Tommi Junttila;
c see http://users.ics.aalto.fi/tjunttil/circuits/index.html
c output <-> 1
c ra_s7a <-> 2
c ra_s6a <-> 3
c ra_s5a <-> 4
c ra_s4a <-> 5
c ra_s3a <-> 6
c ra_s2a <-> 7
c ra_s1a <-> 8
c s0a <-> 9
c ra_s0a <-> 9
c ra_c7 <-> 10
c g7 <-> 14
c ra_c6 <-> 15
c ra_c5 <-> 19
c ra_c4 <-> 23
c ra_c3 <-> 27
c ra_c2 <-> 31
c ra_c1 <-> 35
c ra_c0 <-> 39
c s7a <-> 43
c p7 <-> 44
c s6a <-> 45
c s5a <-> 46
c s4a <-> 47
c s3a <-> 48
c s2a <-> 49
c s1a <-> 50
c c6 <-> 51
c c5 <-> 53
c c4 <-> 55
c c3 <-> 57
c c2 <-> 59
c c1 <-> 61
c c0 <-> 63
c cminus1 <-> 65
c p70 <-> 66
c g70 <-> 67
c p30 <-> 69
c g30 <-> 70
c p74 <-> 72
c g74 <-> 73
c p76 <-> 75
c g76 <-> 76
c p54 <-> 78
c g54 <-> 79
c p32 <-> 81
c g32 <-> 82
c p10 <-> 84
c g10 <-> 85
c p0 <-> 87
c g0 <-> 88
c b0 <-> 89
c a0 <-> 90
c p1 <-> 91
c g1 <-> 92
c b1 <-> 93
c a1 <-> 94
c p2 <-> 95
c g2 <-> 96
c b2 <-> 97
c a2 <-> 98
c p3 <-> 99
c g3 <-> 100
c b3 <-> 101
c a3 <-> 102
c p4 <-> 103
c g4 <-> 104
c b4 <-> 105
c a4 <-> 106
c p5 <-> 107
c g5 <-> 108
c b5 <-> 109
c a5 <-> 110
c p6 <-> 111
c g6 <-> 112
c b6 <-> 113
c a6 <-> 114
c b7 <-> 115
c a7 <-> 116
p cnf 116 322
1 43 -2 0
1 -43 2 0
-1 43 2 0
-1 -43 -2 0
1 0
2 44 -15 0
2 -44 15 0
-2 44 15 0
-2 -44 -15 0
3 111 -19 0
3 -111 19 0
-3 111 19 0
-3 -111 -19 0
4 107 -23 0
4 -107 23 0
-4 107 23 0
-4 -107 -23 0
5 103 -27 0
5 -103 27 0
-5 103 27 0
-5 -103 -27 0
6 99 -31 0
6 -99 31 0
-6 99 31 0
-6 -99 -31 0
7 95 -35 0
7 -95 35 0
-7 95 35 0
-7 -95 -35 0
8 91 -39 0
8 -91 39 0
-8 91 39 0
-8 -91 -39 0
9 87 -65 0
9 -87 65 0
-9 87 65 0
-9 -87 -65 0
10 -11 0
10 -12 0
-10 12 11 0
-11 15 0
-11 116 0
11 -116 -15 0
12 -13 0
12 -14 0
-12 14 13 0
-13 15 0
-13 115 0
13 -115 -15 0
-14 115 0
-14 116 0
14 -116 -115 0
15 -16 0
15 -17 0
-15 17 16 0
-16 19 0
-16 114 0
16 -114 -19 0
17 -18 0
17 -112 0
-17 112 18 0
-18 19 0
-18 113 0
18 -113 -19 0
19 -20 0
19 -21 0
-19 21 20 0
-20 23 0
-20 110 0
20 -110 -23 0
21 -22 0
21 -108 0
-21 108 22 0
-22 23 0
-22 109 0
22 -109 -23 0
23 -24 0
23 -25 0
-23 25 24 0
-24 27 0
-24 106 0
24 -106 -27 0
25 -26 0
25 -104 0
-25 104 26 0
-26 27 0
-26 105 0
26 -105 -27 0
27 -28 0
27 -29 0
-27 29 28 0
-28 31 0
-28 102 0
28 -102 -31 0
29 -30 0
29 -100 0
-29 100 30 0
-30 31 0
-30 101 0
30 -101 -31 0
31 -32 0
31 -33 0
-31 33 32 0
-32 35 0
-32 98 0
32 -98 -35 0
33 -34 0
33 -96 0
-33 96 34 0
-34 35 0
-34 97 0
34 -97 -35 0
35 -36 0
35 -37 0
-35 37 36 0
-36 39 0
-36 94 0
36 -94 -39 0
37 -38 0
37 -92 0
-37 92 38 0
-38 39 0
-38 93 0
38 -93 -39 0
39 -40 0
39 -41 0
-39 41 40 0
-40 65 0
-40 90 0
40 -90 -65 0
41 -42 0
41 -88 0
-41 88 42 0
-42 65 0
-42 89 0
42 -89 -65 0
43 51 -44 0
43 -51 44 0
-43 51 44 0
-43 -51 -44 0
44 116 -115 0
44 -116 115 0
-44 116 115 0
-44 -116 -115 0
45 111 -53 0
45 -111 53 0
-45 111 53 0
-45 -111 -53 0
46 107 -55 0
46 -107 55 0
-46 107 55 0
-46 -107 -55 0
47 103 -57 0
47 -103 57 0
-47 103 57 0
-47 -103 -57 0
48 99 -59 0
48 -99 59 0
-48 99 59 0
-48 -99 -59 0
49 95 -61 0
49 -95 61 0
-49 95 61 0
-49 -95 -61 0
50 91 -63 0
50 -91 63 0
-50 91 63 0
-50 -91 -63 0
51 -52 0
51 -112 0
-51 112 52 0
-52 53 0
-52 111 0
52 -111 -53 0
53 -54 0
53 -79 0
-53 79 54 0
-54 57 0
-54 78 0
54 -78 -57 0
55 -56 0
55 -104 0
-55 104 56 0
-56 57 0
-56 103 0
56 -103 -57 0
57 -58 0
57 -70 0
-57 70 58 0
-58 65 0
-58 69 0
58 -69 -65 0
59 -60 0
59 -96 0
-59 96 60 0
-60 61 0
-60 95 0
60 -95 -61 0
61 -62 0
61 -85 0
-61 85 62 0
-62 65 0
-62 84 0
62 -84 -65 0
63 -64 0
63 -88 0
-63 88 64 0
-64 65 0
-64 87 0
64 -87 -65 0
-66 69 0
-66 72 0
66 -72 -69 0
67 -68 0
67 -73 0
-67 73 68 0
-68 70 0
-68 72 0
68 -72 -70 0
-69 81 0
-69 84 0
69 -84 -81 0
70 -71 0
70 -82 0
-70 82 71 0
-71 81 0
-71 85 0
71 -85 -81 0
-72 75 0
-72 78 0
72 -78 -75 0
73 -74 0
73 -76 0
-73 76 74 0
-74 75 0
-74 79 0
74 -79 -75 0
-75 44 0
-75 111 0
75 -111 -44 0
76 -14 0
76 -77 0
-76 77 14 0
-77 44 0
-77 112 0
77 -112 -44 0
-78 103 0
-78 107 0
78 -107 -103 0
79 -80 0
79 -108 0
-79 108 80 0
-80 104 0
-80 107 0
80 -107 -104 0
-81 95 0
-81 99 0
81 -99 -95 0
82 -83 0
82 -100 0
-82 100 83 0
-83 96 0
-83 99 0
83 -99 -96 0
-84 87 0
-84 91 0
84 -91 -87 0
85 -86 0
85 -92 0
-85 92 86 0
-86 88 0
-86 91 0
86 -91 -88 0
87 90 -89 0
87 -90 89 0
-87 90 89 0
-87 -90 -89 0
-88 89 0
-88 90 0
88 -90 -89 0
91 94 -93 0
91 -94 93 0
-91 94 93 0
-91 -94 -93 0
-92 93 0
-92 94 0
92 -94 -93 0
95 98 -97 0
95 -98 97 0
-95 98 97 0
-95 -98 -97 0
-96 97 0
-96 98 0
96 -98 -97 0
99 102 -101 0
99 -102 101 0
-99 102 101 0
-99 -102 -101 0
-100 101 0
-100 102 0
100 -102 -101 0
103 106 -105 0
103 -106 105 0
-103 106 105 0
-103 -106 -105 0
-104 105 0
-104 106 0
104 -106 -105 0
107 110 -109 0
107 -110 109 0
-107 110 109 0
-107 -110 -109 0
-108 109 0
-108 110 0
108 -110 -109 0
111 114 -113 0
111 -114 113 0
-111 114 113 0
-111 -114 -113 0
-112 113 0
-112 114 0
112 -114 -113 0